11
0 70 35 54 6 38 80 57 78 81 64 
70 0 71 52 48 99 23 85 12 24 35 
35 71 0 52 54 37 27 52 22 27 8 
54 52 52 0 31 13 18 5 48 33 45 
6 48 54 31 0 25 32 23 1 99 44 
38 99 37 13 25 0 3 68 40 74 25 
80 23 27 18 32 3 0 74 4 94 59 
57 85 52 5 23 68 74 0 74 39 80 
78 12 22 48 1 40 4 74 0 97 28 
81 24 27 33 99 74 94 39 97 0 21 
64 35 8 45 44 25 59 80 28 21 0 
